c File: flat100_3_0.col
c
c SOURCE: Joseph Culberson (joe@cs.ualberta.ca)
c DESCRIPTION: Quasi-random coloring problem
c              generated with flatness = 0
c                             probability = 0.072
c                             known coloring = 3
c                             random seed = 1050
c              Creation Date:  Thu Jun  4 18:55:53 1998
c Maximum degree = 8 Minimum degree = 0
c p edge 100 239
c cnf created by edge2cnf
p cnf 300 1117
-1 -2 0
-1 -3 0
-2 -3 0
1 2 3 0
-4 -5 0
-4 -6 0
-5 -6 0
4 5 6 0
-7 -8 0
-7 -9 0
-8 -9 0
7 8 9 0
-10 -11 0
-10 -12 0
-11 -12 0
10 11 12 0
-13 -14 0
-13 -15 0
-14 -15 0
13 14 15 0
-16 -17 0
-16 -18 0
-17 -18 0
16 17 18 0
-19 -20 0
-19 -21 0
-20 -21 0
19 20 21 0
-22 -23 0
-22 -24 0
-23 -24 0
22 23 24 0
-25 -26 0
-25 -27 0
-26 -27 0
25 26 27 0
-28 -29 0
-28 -30 0
-29 -30 0
28 29 30 0
-31 -32 0
-31 -33 0
-32 -33 0
31 32 33 0
-34 -35 0
-34 -36 0
-35 -36 0
34 35 36 0
-37 -38 0
-37 -39 0
-38 -39 0
37 38 39 0
-40 -41 0
-40 -42 0
-41 -42 0
40 41 42 0
-43 -44 0
-43 -45 0
-44 -45 0
43 44 45 0
-46 -47 0
-46 -48 0
-47 -48 0
46 47 48 0
-49 -50 0
-49 -51 0
-50 -51 0
49 50 51 0
-52 -53 0
-52 -54 0
-53 -54 0
52 53 54 0
-55 -56 0
-55 -57 0
-56 -57 0
55 56 57 0
-58 -59 0
-58 -60 0
-59 -60 0
58 59 60 0
-61 -62 0
-61 -63 0
-62 -63 0
61 62 63 0
-64 -65 0
-64 -66 0
-65 -66 0
64 65 66 0
-67 -68 0
-67 -69 0
-68 -69 0
67 68 69 0
-70 -71 0
-70 -72 0
-71 -72 0
70 71 72 0
-73 -74 0
-73 -75 0
-74 -75 0
73 74 75 0
-76 -77 0
-76 -78 0
-77 -78 0
76 77 78 0
-79 -80 0
-79 -81 0
-80 -81 0
79 80 81 0
-82 -83 0
-82 -84 0
-83 -84 0
82 83 84 0
-85 -86 0
-85 -87 0
-86 -87 0
85 86 87 0
-88 -89 0
-88 -90 0
-89 -90 0
88 89 90 0
-91 -92 0
-91 -93 0
-92 -93 0
91 92 93 0
-94 -95 0
-94 -96 0
-95 -96 0
94 95 96 0
-97 -98 0
-97 -99 0
-98 -99 0
97 98 99 0
-100 -101 0
-100 -102 0
-101 -102 0
100 101 102 0
-103 -104 0
-103 -105 0
-104 -105 0
103 104 105 0
-106 -107 0
-106 -108 0
-107 -108 0
106 107 108 0
-109 -110 0
-109 -111 0
-110 -111 0
109 110 111 0
-112 -113 0
-112 -114 0
-113 -114 0
112 113 114 0
-115 -116 0
-115 -117 0
-116 -117 0
115 116 117 0
-118 -119 0
-118 -120 0
-119 -120 0
118 119 120 0
-121 -122 0
-121 -123 0
-122 -123 0
121 122 123 0
-124 -125 0
-124 -126 0
-125 -126 0
124 125 126 0
-127 -128 0
-127 -129 0
-128 -129 0
127 128 129 0
-130 -131 0
-130 -132 0
-131 -132 0
130 131 132 0
-133 -134 0
-133 -135 0
-134 -135 0
133 134 135 0
-136 -137 0
-136 -138 0
-137 -138 0
136 137 138 0
-139 -140 0
-139 -141 0
-140 -141 0
139 140 141 0
-142 -143 0
-142 -144 0
-143 -144 0
142 143 144 0
-145 -146 0
-145 -147 0
-146 -147 0
145 146 147 0
-148 -149 0
-148 -150 0
-149 -150 0
148 149 150 0
-151 -152 0
-151 -153 0
-152 -153 0
151 152 153 0
-154 -155 0
-154 -156 0
-155 -156 0
154 155 156 0
-157 -158 0
-157 -159 0
-158 -159 0
157 158 159 0
-160 -161 0
-160 -162 0
-161 -162 0
160 161 162 0
-163 -164 0
-163 -165 0
-164 -165 0
163 164 165 0
-166 -167 0
-166 -168 0
-167 -168 0
166 167 168 0
-169 -170 0
-169 -171 0
-170 -171 0
169 170 171 0
-172 -173 0
-172 -174 0
-173 -174 0
172 173 174 0
-175 -176 0
-175 -177 0
-176 -177 0
175 176 177 0
-178 -179 0
-178 -180 0
-179 -180 0
178 179 180 0
-181 -182 0
-181 -183 0
-182 -183 0
181 182 183 0
-184 -185 0
-184 -186 0
-185 -186 0
184 185 186 0
-187 -188 0
-187 -189 0
-188 -189 0
187 188 189 0
-190 -191 0
-190 -192 0
-191 -192 0
190 191 192 0
-193 -194 0
-193 -195 0
-194 -195 0
193 194 195 0
-196 -197 0
-196 -198 0
-197 -198 0
196 197 198 0
-199 -200 0
-199 -201 0
-200 -201 0
199 200 201 0
-202 -203 0
-202 -204 0
-203 -204 0
202 203 204 0
-205 -206 0
-205 -207 0
-206 -207 0
205 206 207 0
-208 -209 0
-208 -210 0
-209 -210 0
208 209 210 0
-211 -212 0
-211 -213 0
-212 -213 0
211 212 213 0
-214 -215 0
-214 -216 0
-215 -216 0
214 215 216 0
-217 -218 0
-217 -219 0
-218 -219 0
217 218 219 0
-220 -221 0
-220 -222 0
-221 -222 0
220 221 222 0
-223 -224 0
-223 -225 0
-224 -225 0
223 224 225 0
-226 -227 0
-226 -228 0
-227 -228 0
226 227 228 0
-229 -230 0
-229 -231 0
-230 -231 0
229 230 231 0
-232 -233 0
-232 -234 0
-233 -234 0
232 233 234 0
-235 -236 0
-235 -237 0
-236 -237 0
235 236 237 0
-238 -239 0
-238 -240 0
-239 -240 0
238 239 240 0
-241 -242 0
-241 -243 0
-242 -243 0
241 242 243 0
-244 -245 0
-244 -246 0
-245 -246 0
244 245 246 0
-247 -248 0
-247 -249 0
-248 -249 0
247 248 249 0
-250 -251 0
-250 -252 0
-251 -252 0
250 251 252 0
-253 -254 0
-253 -255 0
-254 -255 0
253 254 255 0
-256 -257 0
-256 -258 0
-257 -258 0
256 257 258 0
-259 -260 0
-259 -261 0
-260 -261 0
259 260 261 0
-262 -263 0
-262 -264 0
-263 -264 0
262 263 264 0
-265 -266 0
-265 -267 0
-266 -267 0
265 266 267 0
-268 -269 0
-268 -270 0
-269 -270 0
268 269 270 0
-271 -272 0
-271 -273 0
-272 -273 0
271 272 273 0
-274 -275 0
-274 -276 0
-275 -276 0
274 275 276 0
-277 -278 0
-277 -279 0
-278 -279 0
277 278 279 0
-280 -281 0
-280 -282 0
-281 -282 0
280 281 282 0
-283 -284 0
-283 -285 0
-284 -285 0
283 284 285 0
-286 -287 0
-286 -288 0
-287 -288 0
286 287 288 0
-289 -290 0
-289 -291 0
-290 -291 0
289 290 291 0
-292 -293 0
-292 -294 0
-293 -294 0
292 293 294 0
-295 -296 0
-295 -297 0
-296 -297 0
295 296 297 0
-298 -299 0
-298 -300 0
-299 -300 0
298 299 300 0
-112 -1 0
-113 -2 0
-114 -3 0
-151 -1 0
-152 -2 0
-153 -3 0
-205 -1 0
-206 -2 0
-207 -3 0
-280 -1 0
-281 -2 0
-282 -3 0
-295 -1 0
-296 -2 0
-297 -3 0
-130 -4 0
-131 -5 0
-132 -6 0
-157 -4 0
-158 -5 0
-159 -6 0
-244 -4 0
-245 -5 0
-246 -6 0
-253 -4 0
-254 -5 0
-255 -6 0
-280 -4 0
-281 -5 0
-282 -6 0
-157 -7 0
-158 -8 0
-159 -9 0
-166 -7 0
-167 -8 0
-168 -9 0
-193 -7 0
-194 -8 0
-195 -9 0
-205 -7 0
-206 -8 0
-207 -9 0
-250 -7 0
-251 -8 0
-252 -9 0
-289 -7 0
-290 -8 0
-291 -9 0
-298 -7 0
-299 -8 0
-300 -9 0
-235 -10 0
-236 -11 0
-237 -12 0
-247 -10 0
-248 -11 0
-249 -12 0
-139 -13 0
-140 -14 0
-141 -15 0
-241 -13 0
-242 -14 0
-243 -15 0
-151 -16 0
-152 -17 0
-153 -18 0
-193 -16 0
-194 -17 0
-195 -18 0
-250 -16 0
-251 -17 0
-252 -18 0
-265 -16 0
-266 -17 0
-267 -18 0
-292 -16 0
-293 -17 0
-294 -18 0
-142 -19 0
-143 -20 0
-144 -21 0
-115 -22 0
-116 -23 0
-117 -24 0
-256 -22 0
-257 -23 0
-258 -24 0
-103 -25 0
-104 -26 0
-105 -27 0
-112 -25 0
-113 -26 0
-114 -27 0
-136 -25 0
-137 -26 0
-138 -27 0
-160 -25 0
-161 -26 0
-162 -27 0
-205 -25 0
-206 -26 0
-207 -27 0
-235 -25 0
-236 -26 0
-237 -27 0
-118 -28 0
-119 -29 0
-120 -30 0
-139 -28 0
-140 -29 0
-141 -30 0
-232 -28 0
-233 -29 0
-234 -30 0
-262 -28 0
-263 -29 0
-264 -30 0
-124 -31 0
-125 -32 0
-126 -33 0
-181 -31 0
-182 -32 0
-183 -33 0
-187 -31 0
-188 -32 0
-189 -33 0
-202 -31 0
-203 -32 0
-204 -33 0
-229 -31 0
-230 -32 0
-231 -33 0
-247 -31 0
-248 -32 0
-249 -33 0
-259 -31 0
-260 -32 0
-261 -33 0
-124 -34 0
-125 -35 0
-126 -36 0
-172 -34 0
-173 -35 0
-174 -36 0
-175 -34 0
-176 -35 0
-177 -36 0
-196 -34 0
-197 -35 0
-198 -36 0
-109 -37 0
-110 -38 0
-111 -39 0
-118 -37 0
-119 -38 0
-120 -39 0
-145 -37 0
-146 -38 0
-147 -39 0
-208 -37 0
-209 -38 0
-210 -39 0
-220 -37 0
-221 -38 0
-222 -39 0
-250 -37 0
-251 -38 0
-252 -39 0
-109 -40 0
-110 -41 0
-111 -42 0
-115 -40 0
-116 -41 0
-117 -42 0
-142 -40 0
-143 -41 0
-144 -42 0
-181 -40 0
-182 -41 0
-183 -42 0
-214 -40 0
-215 -41 0
-216 -42 0
-298 -40 0
-299 -41 0
-300 -42 0
-106 -43 0
-107 -44 0
-108 -45 0
-112 -46 0
-113 -47 0
-114 -48 0
-169 -46 0
-170 -47 0
-171 -48 0
-181 -46 0
-182 -47 0
-183 -48 0
-193 -46 0
-194 -47 0
-195 -48 0
-211 -46 0
-212 -47 0
-213 -48 0
-220 -46 0
-221 -47 0
-222 -48 0
-250 -46 0
-251 -47 0
-252 -48 0
-283 -46 0
-284 -47 0
-285 -48 0
-238 -52 0
-239 -53 0
-240 -54 0
-244 -52 0
-245 -53 0
-246 -54 0
-157 -55 0
-158 -56 0
-159 -57 0
-169 -55 0
-170 -56 0
-171 -57 0
-262 -55 0
-263 -56 0
-264 -57 0
-298 -55 0
-299 -56 0
-300 -57 0
-157 -58 0
-158 -59 0
-159 -60 0
-160 -58 0
-161 -59 0
-162 -60 0
-193 -58 0
-194 -59 0
-195 -60 0
-226 -58 0
-227 -59 0
-228 -60 0
-262 -58 0
-263 -59 0
-264 -60 0
-265 -58 0
-266 -59 0
-267 -60 0
-106 -61 0
-107 -62 0
-108 -63 0
-139 -61 0
-140 -62 0
-141 -63 0
-163 -61 0
-164 -62 0
-165 -63 0
-178 -61 0
-179 -62 0
-180 -63 0
-298 -61 0
-299 -62 0
-300 -63 0
-145 -64 0
-146 -65 0
-147 -66 0
-151 -64 0
-152 -65 0
-153 -66 0
-187 -64 0
-188 -65 0
-189 -66 0
-199 -64 0
-200 -65 0
-201 -66 0
-238 -64 0
-239 -65 0
-240 -66 0
-271 -64 0
-272 -65 0
-273 -66 0
-112 -67 0
-113 -68 0
-114 -69 0
-223 -67 0
-224 -68 0
-225 -69 0
-241 -67 0
-242 -68 0
-243 -69 0
-247 -67 0
-248 -68 0
-249 -69 0
-295 -67 0
-296 -68 0
-297 -69 0
-106 -70 0
-107 -71 0
-108 -72 0
-175 -70 0
-176 -71 0
-177 -72 0
-190 -70 0
-191 -71 0
-192 -72 0
-211 -70 0
-212 -71 0
-213 -72 0
-241 -70 0
-242 -71 0
-243 -72 0
-253 -70 0
-254 -71 0
-255 -72 0
-187 -73 0
-188 -74 0
-189 -75 0
-196 -73 0
-197 -74 0
-198 -75 0
-202 -73 0
-203 -74 0
-204 -75 0
-211 -73 0
-212 -74 0
-213 -75 0
-223 -73 0
-224 -74 0
-225 -75 0
-103 -76 0
-104 -77 0
-105 -78 0
-196 -76 0
-197 -77 0
-198 -78 0
-214 -76 0
-215 -77 0
-216 -78 0
-229 -76 0
-230 -77 0
-231 -78 0
-256 -76 0
-257 -77 0
-258 -78 0
-103 -79 0
-104 -80 0
-105 -81 0
-127 -79 0
-128 -80 0
-129 -81 0
-175 -79 0
-176 -80 0
-177 -81 0
-259 -79 0
-260 -80 0
-261 -81 0
-262 -79 0
-263 -80 0
-264 -81 0
-271 -79 0
-272 -80 0
-273 -81 0
-277 -79 0
-278 -80 0
-279 -81 0
-178 -82 0
-179 -83 0
-180 -84 0
-208 -82 0
-209 -83 0
-210 -84 0
-211 -82 0
-212 -83 0
-213 -84 0
-286 -82 0
-287 -83 0
-288 -84 0
-292 -82 0
-293 -83 0
-294 -84 0
-169 -85 0
-170 -86 0
-171 -87 0
-286 -85 0
-287 -86 0
-288 -87 0
-133 -88 0
-134 -89 0
-135 -90 0
-151 -88 0
-152 -89 0
-153 -90 0
-184 -88 0
-185 -89 0
-186 -90 0
-202 -88 0
-203 -89 0
-204 -90 0
-115 -91 0
-116 -92 0
-117 -93 0
-124 -91 0
-125 -92 0
-126 -93 0
-154 -91 0
-155 -92 0
-156 -93 0
-184 -91 0
-185 -92 0
-186 -93 0
-220 -91 0
-221 -92 0
-222 -93 0
-271 -91 0
-272 -92 0
-273 -93 0
-280 -91 0
-281 -92 0
-282 -93 0
-292 -91 0
-293 -92 0
-294 -93 0
-166 -94 0
-167 -95 0
-168 -96 0
-181 -94 0
-182 -95 0
-183 -96 0
-220 -94 0
-221 -95 0
-222 -96 0
-226 -94 0
-227 -95 0
-228 -96 0
-229 -94 0
-230 -95 0
-231 -96 0
-277 -94 0
-278 -95 0
-279 -96 0
-118 -97 0
-119 -98 0
-120 -99 0
-139 -97 0
-140 -98 0
-141 -99 0
-148 -97 0
-149 -98 0
-150 -99 0
-199 -97 0
-200 -98 0
-201 -99 0
-214 -97 0
-215 -98 0
-216 -99 0
-226 -97 0
-227 -98 0
-228 -99 0
-280 -97 0
-281 -98 0
-282 -99 0
-292 -97 0
-293 -98 0
-294 -99 0
-115 -100 0
-116 -101 0
-117 -102 0
-166 -100 0
-167 -101 0
-168 -102 0
-190 -100 0
-191 -101 0
-192 -102 0
-196 -100 0
-197 -101 0
-198 -102 0
-226 -100 0
-227 -101 0
-228 -102 0
-271 -100 0
-272 -101 0
-273 -102 0
-220 -103 0
-221 -104 0
-222 -105 0
-250 -103 0
-251 -104 0
-252 -105 0
-208 -106 0
-209 -107 0
-210 -108 0
-232 -109 0
-233 -110 0
-234 -111 0
-238 -109 0
-239 -110 0
-240 -111 0
-250 -109 0
-251 -110 0
-252 -111 0
-259 -109 0
-260 -110 0
-261 -111 0
-214 -112 0
-215 -113 0
-216 -114 0
-226 -112 0
-227 -113 0
-228 -114 0
-235 -112 0
-236 -113 0
-237 -114 0
-265 -112 0
-266 -113 0
-267 -114 0
-202 -115 0
-203 -116 0
-204 -117 0
-235 -115 0
-236 -116 0
-237 -117 0
-235 -118 0
-236 -119 0
-237 -120 0
-247 -118 0
-248 -119 0
-249 -120 0
-259 -121 0
-260 -122 0
-261 -123 0
-265 -121 0
-266 -122 0
-267 -123 0
-280 -121 0
-281 -122 0
-282 -123 0
-292 -121 0
-293 -122 0
-294 -123 0
-250 -124 0
-251 -125 0
-252 -126 0
-232 -127 0
-233 -128 0
-234 -129 0
-265 -127 0
-266 -128 0
-267 -129 0
-271 -127 0
-272 -128 0
-273 -129 0
-202 -133 0
-203 -134 0
-204 -135 0
-214 -133 0
-215 -134 0
-216 -135 0
-238 -133 0
-239 -134 0
-240 -135 0
-259 -133 0
-260 -134 0
-261 -135 0
-262 -136 0
-263 -137 0
-264 -138 0
-268 -136 0
-269 -137 0
-270 -138 0
-223 -139 0
-224 -140 0
-225 -141 0
-241 -142 0
-242 -143 0
-243 -144 0
-205 -145 0
-206 -146 0
-207 -147 0
-211 -145 0
-212 -146 0
-213 -147 0
-238 -145 0
-239 -146 0
-240 -147 0
-244 -145 0
-245 -146 0
-246 -147 0
-208 -148 0
-209 -149 0
-210 -150 0
-226 -148 0
-227 -149 0
-228 -150 0
-283 -151 0
-284 -152 0
-285 -153 0
-298 -151 0
-299 -152 0
-300 -153 0
-202 -154 0
-203 -155 0
-204 -156 0
-217 -154 0
-218 -155 0
-219 -156 0
-244 -154 0
-245 -155 0
-246 -156 0
-262 -154 0
-263 -155 0
-264 -156 0
-274 -157 0
-275 -158 0
-276 -159 0
-289 -157 0
-290 -158 0
-291 -159 0
-202 -160 0
-203 -161 0
-204 -162 0
-244 -160 0
-245 -161 0
-246 -162 0
-247 -160 0
-248 -161 0
-249 -162 0
-277 -163 0
-278 -164 0
-279 -165 0
-292 -163 0
-293 -164 0
-294 -165 0
-205 -166 0
-206 -167 0
-207 -168 0
-241 -166 0
-242 -167 0
-243 -168 0
-220 -169 0
-221 -170 0
-222 -171 0
-223 -169 0
-224 -170 0
-225 -171 0
-295 -169 0
-296 -170 0
-297 -171 0
-298 -169 0
-299 -170 0
-300 -171 0
-253 -172 0
-254 -173 0
-255 -174 0
-286 -172 0
-287 -173 0
-288 -174 0
-208 -175 0
-209 -176 0
-210 -177 0
-244 -178 0
-245 -179 0
-246 -180 0
-256 -178 0
-257 -179 0
-258 -180 0
-289 -178 0
-290 -179 0
-291 -180 0
-259 -181 0
-260 -182 0
-261 -183 0
-286 -181 0
-287 -182 0
-288 -183 0
-268 -184 0
-269 -185 0
-270 -186 0
-289 -184 0
-290 -185 0
-291 -186 0
-292 -184 0
-293 -185 0
-294 -186 0
-268 -187 0
-269 -188 0
-270 -189 0
-286 -187 0
-287 -188 0
-288 -189 0
-214 -190 0
-215 -191 0
-216 -192 0
-217 -190 0
-218 -191 0
-219 -192 0
-250 -190 0
-251 -191 0
-252 -192 0
-289 -190 0
-290 -191 0
-291 -192 0
-232 -193 0
-233 -194 0
-234 -195 0
-280 -193 0
-281 -194 0
-282 -195 0
-253 -196 0
-254 -197 0
-255 -198 0
-277 -196 0
-278 -197 0
-279 -198 0
-208 -199 0
-209 -200 0
-210 -201 0
